c this is the SAT instance from the graph 
p cnf 50 0
1 3 0
1 4 0
1 7 0
1 10 0
1 12 0
1 13 0
1 15 0
1 19 0
1 20 0
1 22 0
1 23 0
1 25 0
1 26 0
1 27 0
1 28 0
1 30 0
1 31 0
1 32 0
1 36 0
1 41 0
1 43 0
1 46 0
1 47 0
1 48 0
1 51 0
1 53 0
1 55 0
1 58 0
1 60 0
1 61 0
1 62 0
1 64 0
1 65 0
1 66 0
1 67 0
1 68 0
1 69 0
1 70 0
1 71 0
1 74 0
1 75 0
1 76 0
1 78 0
1 86 0
1 91 0
1 92 0
1 93 0
1 97 0
1 98 0
3 4 0
3 7 0
3 10 0
3 12 0
3 13 0
3 15 0
3 19 0
3 20 0
3 22 0
3 23 0
3 25 0
3 26 0
3 27 0
3 28 0
3 30 0
3 31 0
3 32 0
3 36 0
3 41 0
3 43 0
3 46 0
3 47 0
3 48 0
3 51 0
3 53 0
3 55 0
3 58 0
3 60 0
3 61 0
3 62 0
3 64 0
3 65 0
3 66 0
3 67 0
3 68 0
3 69 0
3 70 0
3 71 0
3 74 0
3 75 0
3 76 0
3 78 0
3 86 0
3 91 0
3 92 0
3 93 0
3 97 0
3 98 0
4 7 0
4 10 0
4 12 0
4 13 0
4 15 0
4 19 0
4 20 0
4 22 0
4 23 0
4 25 0
4 26 0
4 27 0
4 28 0
4 30 0
4 31 0
4 32 0
4 36 0
4 41 0
4 43 0
4 46 0
4 47 0
4 48 0
4 51 0
4 53 0
4 55 0
4 58 0
4 60 0
4 61 0
4 62 0
4 64 0
4 65 0
4 66 0
4 67 0
4 68 0
4 69 0
4 70 0
4 71 0
4 74 0
4 75 0
4 76 0
4 78 0
4 86 0
4 91 0
4 92 0
4 93 0
4 97 0
4 98 0
7 10 0
7 12 0
7 13 0
7 15 0
7 19 0
7 20 0
7 22 0
7 23 0
7 25 0
7 26 0
7 27 0
7 28 0
7 30 0
7 31 0
7 32 0
7 36 0
7 41 0
7 43 0
7 46 0
7 47 0
7 48 0
7 51 0
7 53 0
7 55 0
7 58 0
7 60 0
7 61 0
7 62 0
7 64 0
7 65 0
7 66 0
7 67 0
7 68 0
7 69 0
7 70 0
7 71 0
7 74 0
7 75 0
7 76 0
7 78 0
7 86 0
7 91 0
7 92 0
7 93 0
7 97 0
7 98 0
10 12 0
10 13 0
10 15 0
10 19 0
10 20 0
10 22 0
10 23 0
10 25 0
10 26 0
10 27 0
10 28 0
10 30 0
10 31 0
10 32 0
10 36 0
10 41 0
10 43 0
10 46 0
10 47 0
10 48 0
10 51 0
10 53 0
10 55 0
10 58 0
10 60 0
10 61 0
10 62 0
10 64 0
10 65 0
10 66 0
10 67 0
10 68 0
10 69 0
10 70 0
10 71 0
10 74 0
10 75 0
10 76 0
10 78 0
10 86 0
10 91 0
10 92 0
10 93 0
10 97 0
10 98 0
12 13 0
12 15 0
12 19 0
12 20 0
12 22 0
12 23 0
12 25 0
12 26 0
12 27 0
12 28 0
12 30 0
12 31 0
12 32 0
12 36 0
12 41 0
12 43 0
12 46 0
12 47 0
12 48 0
12 51 0
12 53 0
12 55 0
12 58 0
12 60 0
12 61 0
12 62 0
12 64 0
12 65 0
12 66 0
12 67 0
12 68 0
12 69 0
12 70 0
12 71 0
12 74 0
12 75 0
12 76 0
12 78 0
12 86 0
12 91 0
12 92 0
12 93 0
12 97 0
12 98 0
13 15 0
13 19 0
13 20 0
13 22 0
13 23 0
13 25 0
13 26 0
13 27 0
13 28 0
13 30 0
13 31 0
13 32 0
13 36 0
13 41 0
13 43 0
13 46 0
13 47 0
13 48 0
13 51 0
13 53 0
13 55 0
13 58 0
13 60 0
13 61 0
13 62 0
13 64 0
13 65 0
13 66 0
13 67 0
13 68 0
13 69 0
13 70 0
13 71 0
13 74 0
13 75 0
13 76 0
13 78 0
13 86 0
13 91 0
13 92 0
13 93 0
13 97 0
13 98 0
15 19 0
15 20 0
15 22 0
15 23 0
15 25 0
15 26 0
15 27 0
15 28 0
15 30 0
15 31 0
15 32 0
15 36 0
15 41 0
15 43 0
15 46 0
15 47 0
15 48 0
15 51 0
15 53 0
15 55 0
15 58 0
15 60 0
15 61 0
15 62 0
15 64 0
15 65 0
15 66 0
15 67 0
15 68 0
15 69 0
15 70 0
15 71 0
15 74 0
15 75 0
15 76 0
15 78 0
15 86 0
15 91 0
15 92 0
15 93 0
15 97 0
15 98 0
19 20 0
19 22 0
19 23 0
19 25 0
19 26 0
19 27 0
19 28 0
19 30 0
19 31 0
19 32 0
19 36 0
19 41 0
19 43 0
19 46 0
19 47 0
19 48 0
19 51 0
19 53 0
19 55 0
19 58 0
19 60 0
19 61 0
19 62 0
19 64 0
19 65 0
19 66 0
19 67 0
19 68 0
19 69 0
19 70 0
19 71 0
19 74 0
19 75 0
19 76 0
19 78 0
19 86 0
19 91 0
19 92 0
19 93 0
19 97 0
19 98 0
20 22 0
20 23 0
20 25 0
20 26 0
20 27 0
20 28 0
20 30 0
20 31 0
20 32 0
20 36 0
20 41 0
20 43 0
20 46 0
20 47 0
20 48 0
20 51 0
20 53 0
20 55 0
20 58 0
20 60 0
20 61 0
20 62 0
20 64 0
20 65 0
20 66 0
20 67 0
20 68 0
20 69 0
20 70 0
20 71 0
20 74 0
20 75 0
20 76 0
20 78 0
20 86 0
20 91 0
20 92 0
20 93 0
20 97 0
20 98 0
22 23 0
22 25 0
22 26 0
22 27 0
22 28 0
22 30 0
22 31 0
22 32 0
22 36 0
22 41 0
22 43 0
22 46 0
22 47 0
22 48 0
22 51 0
22 53 0
22 55 0
22 58 0
22 60 0
22 61 0
22 62 0
22 64 0
22 65 0
22 66 0
22 67 0
22 68 0
22 69 0
22 70 0
22 71 0
22 74 0
22 75 0
22 76 0
22 78 0
22 86 0
22 91 0
22 92 0
22 93 0
22 97 0
22 98 0
23 25 0
23 26 0
23 27 0
23 28 0
23 30 0
23 31 0
23 32 0
23 36 0
23 41 0
23 43 0
23 46 0
23 47 0
23 48 0
23 51 0
23 53 0
23 55 0
23 58 0
23 60 0
23 61 0
23 62 0
23 64 0
23 65 0
23 66 0
23 67 0
23 68 0
23 69 0
23 70 0
23 71 0
23 74 0
23 75 0
23 76 0
23 78 0
23 86 0
23 91 0
23 92 0
23 93 0
23 97 0
23 98 0
25 26 0
25 27 0
25 28 0
25 30 0
25 31 0
25 32 0
25 36 0
25 41 0
25 43 0
25 46 0
25 47 0
25 48 0
25 51 0
25 53 0
25 55 0
25 58 0
25 60 0
25 61 0
25 62 0
25 64 0
25 65 0
25 66 0
25 67 0
25 68 0
25 69 0
25 70 0
25 71 0
25 74 0
25 75 0
25 76 0
25 78 0
25 86 0
25 91 0
25 92 0
25 93 0
25 97 0
25 98 0
26 27 0
26 28 0
26 30 0
26 31 0
26 32 0
26 36 0
26 41 0
26 43 0
26 46 0
26 47 0
26 48 0
26 51 0
26 53 0
26 55 0
26 58 0
26 60 0
26 61 0
26 62 0
26 64 0
26 65 0
26 66 0
26 67 0
26 68 0
26 69 0
26 70 0
26 71 0
26 74 0
26 75 0
26 76 0
26 78 0
26 86 0
26 91 0
26 92 0
26 93 0
26 97 0
26 98 0
27 28 0
27 30 0
27 31 0
27 32 0
27 36 0
27 41 0
27 43 0
27 46 0
27 47 0
27 48 0
27 51 0
27 53 0
27 55 0
27 58 0
27 60 0
27 61 0
27 62 0
27 64 0
27 65 0
27 66 0
27 67 0
27 68 0
27 69 0
27 70 0
27 71 0
27 74 0
27 75 0
27 76 0
27 78 0
27 86 0
27 91 0
27 92 0
27 93 0
27 97 0
27 98 0
28 30 0
28 31 0
28 32 0
28 36 0
28 41 0
28 43 0
28 46 0
28 47 0
28 48 0
28 51 0
28 53 0
28 55 0
28 58 0
28 60 0
28 61 0
28 62 0
28 64 0
28 65 0
28 66 0
28 67 0
28 68 0
28 69 0
28 70 0
28 71 0
28 74 0
28 75 0
28 76 0
28 78 0
28 86 0
28 91 0
28 92 0
28 93 0
28 97 0
28 98 0
30 31 0
30 32 0
30 36 0
30 41 0
30 43 0
30 46 0
30 47 0
30 48 0
30 51 0
30 53 0
30 55 0
30 58 0
30 60 0
30 61 0
30 62 0
30 64 0
30 65 0
30 66 0
30 67 0
30 68 0
30 69 0
30 70 0
30 71 0
30 74 0
30 75 0
30 76 0
30 78 0
30 86 0
30 91 0
30 92 0
30 93 0
30 97 0
30 98 0
31 32 0
31 36 0
31 41 0
31 43 0
31 46 0
31 47 0
31 48 0
31 51 0
31 53 0
31 55 0
31 58 0
31 60 0
31 61 0
31 62 0
31 64 0
31 65 0
31 66 0
31 67 0
31 68 0
31 69 0
31 70 0
31 71 0
31 74 0
31 75 0
31 76 0
31 78 0
31 86 0
31 91 0
31 92 0
31 93 0
31 97 0
31 98 0
32 36 0
32 41 0
32 43 0
32 46 0
32 47 0
32 48 0
32 51 0
32 53 0
32 55 0
32 58 0
32 60 0
32 61 0
32 62 0
32 64 0
32 65 0
32 66 0
32 67 0
32 68 0
32 69 0
32 70 0
32 71 0
32 74 0
32 75 0
32 76 0
32 78 0
32 86 0
32 91 0
32 92 0
32 93 0
32 97 0
32 98 0
36 41 0
36 43 0
36 46 0
36 47 0
36 48 0
36 51 0
36 53 0
36 55 0
36 58 0
36 60 0
36 61 0
36 62 0
36 64 0
36 65 0
36 66 0
36 67 0
36 68 0
36 69 0
36 70 0
36 71 0
36 74 0
36 75 0
36 76 0
36 78 0
36 86 0
36 91 0
36 92 0
36 93 0
36 97 0
36 98 0
41 43 0
41 46 0
41 47 0
41 48 0
41 51 0
41 53 0
41 55 0
41 58 0
41 60 0
41 61 0
41 62 0
41 64 0
41 65 0
41 66 0
41 67 0
41 68 0
41 69 0
41 70 0
41 71 0
41 74 0
41 75 0
41 76 0
41 78 0
41 86 0
41 91 0
41 92 0
41 93 0
41 97 0
41 98 0
43 46 0
43 47 0
43 48 0
43 51 0
43 53 0
43 55 0
43 58 0
43 60 0
43 61 0
43 62 0
43 64 0
43 65 0
43 66 0
43 67 0
43 68 0
43 69 0
43 70 0
43 71 0
43 74 0
43 75 0
43 76 0
43 78 0
43 86 0
43 91 0
43 92 0
43 93 0
43 97 0
43 98 0
46 47 0
46 48 0
46 51 0
46 53 0
46 55 0
46 58 0
46 60 0
46 61 0
46 62 0
46 64 0
46 65 0
46 66 0
46 67 0
46 68 0
46 69 0
46 70 0
46 71 0
46 74 0
46 75 0
46 76 0
46 78 0
46 86 0
46 91 0
46 92 0
46 93 0
46 97 0
46 98 0
47 48 0
47 51 0
47 53 0
47 55 0
47 58 0
47 60 0
47 61 0
47 62 0
47 64 0
47 65 0
47 66 0
47 67 0
47 68 0
47 69 0
47 70 0
47 71 0
47 74 0
47 75 0
47 76 0
47 78 0
47 86 0
47 91 0
47 92 0
47 93 0
47 97 0
47 98 0
48 51 0
48 53 0
48 55 0
48 58 0
48 60 0
48 61 0
48 62 0
48 64 0
48 65 0
48 66 0
48 67 0
48 68 0
48 69 0
48 70 0
48 71 0
48 74 0
48 75 0
48 76 0
48 78 0
48 86 0
48 91 0
48 92 0
48 93 0
48 97 0
48 98 0
51 53 0
51 55 0
51 58 0
51 60 0
51 61 0
51 62 0
51 64 0
51 65 0
51 66 0
51 67 0
51 68 0
51 69 0
51 70 0
51 71 0
51 74 0
51 75 0
51 76 0
51 78 0
51 86 0
51 91 0
51 92 0
51 93 0
51 97 0
51 98 0
53 55 0
53 58 0
53 60 0
53 61 0
53 62 0
53 64 0
53 65 0
53 66 0
53 67 0
53 68 0
53 69 0
53 70 0
53 71 0
53 74 0
53 75 0
53 76 0
53 78 0
53 86 0
53 91 0
53 92 0
53 93 0
53 97 0
53 98 0
55 58 0
55 60 0
55 61 0
55 62 0
55 64 0
55 65 0
55 66 0
55 67 0
55 68 0
55 69 0
55 70 0
55 71 0
55 74 0
55 75 0
55 76 0
55 78 0
55 86 0
55 91 0
55 92 0
55 93 0
55 97 0
55 98 0
58 60 0
58 61 0
58 62 0
58 64 0
58 65 0
58 66 0
58 67 0
58 68 0
58 69 0
58 70 0
58 71 0
58 74 0
58 75 0
58 76 0
58 78 0
58 86 0
58 91 0
58 92 0
58 93 0
58 97 0
58 98 0
60 61 0
60 62 0
60 64 0
60 65 0
60 66 0
60 67 0
60 68 0
60 69 0
60 70 0
60 71 0
60 74 0
60 75 0
60 76 0
60 78 0
60 86 0
60 91 0
60 92 0
60 93 0
60 97 0
60 98 0
61 62 0
61 64 0
61 65 0
61 66 0
61 67 0
61 68 0
61 69 0
61 70 0
61 71 0
61 74 0
61 75 0
61 76 0
61 78 0
61 86 0
61 91 0
61 92 0
61 93 0
61 97 0
61 98 0
62 64 0
62 65 0
62 66 0
62 67 0
62 68 0
62 69 0
62 70 0
62 71 0
62 74 0
62 75 0
62 76 0
62 78 0
62 86 0
62 91 0
62 92 0
62 93 0
62 97 0
62 98 0
64 65 0
64 66 0
64 67 0
64 68 0
64 69 0
64 70 0
64 71 0
64 74 0
64 75 0
64 76 0
64 78 0
64 86 0
64 91 0
64 92 0
64 93 0
64 97 0
64 98 0
65 66 0
65 67 0
65 68 0
65 69 0
65 70 0
65 71 0
65 74 0
65 75 0
65 76 0
65 78 0
65 86 0
65 91 0
65 92 0
65 93 0
65 97 0
65 98 0
66 67 0
66 68 0
66 69 0
66 70 0
66 71 0
66 74 0
66 75 0
66 76 0
66 78 0
66 86 0
66 91 0
66 92 0
66 93 0
66 97 0
66 98 0
67 68 0
67 69 0
67 70 0
67 71 0
67 74 0
67 75 0
67 76 0
67 78 0
67 86 0
67 91 0
67 92 0
67 93 0
67 97 0
67 98 0
68 69 0
68 70 0
68 71 0
68 74 0
68 75 0
68 76 0
68 78 0
68 86 0
68 91 0
68 92 0
68 93 0
68 97 0
68 98 0
69 70 0
69 71 0
69 74 0
69 75 0
69 76 0
69 78 0
69 86 0
69 91 0
69 92 0
69 93 0
69 97 0
69 98 0
70 71 0
70 74 0
70 75 0
70 76 0
70 78 0
70 86 0
70 91 0
70 92 0
70 93 0
70 97 0
70 98 0
71 74 0
71 75 0
71 76 0
71 78 0
71 86 0
71 91 0
71 92 0
71 93 0
71 97 0
71 98 0
74 75 0
74 76 0
74 78 0
74 86 0
74 91 0
74 92 0
74 93 0
74 97 0
74 98 0
75 76 0
75 78 0
75 86 0
75 91 0
75 92 0
75 93 0
75 97 0
75 98 0
76 78 0
76 86 0
76 91 0
76 92 0
76 93 0
76 97 0
76 98 0
78 86 0
78 91 0
78 92 0
78 93 0
78 97 0
78 98 0
86 91 0
86 92 0
86 93 0
86 97 0
86 98 0
91 92 0
91 93 0
91 97 0
91 98 0
92 93 0
92 97 0
92 98 0
93 97 0
93 98 0
97 98 0
